c Sudoku solution
p cnf 729 0
113 0
122 0
268 0
276 0
299 0
355 0
364 0
392 0
473 0
498 0
544 0
582 0
628 0
558 0
635 0
689 0
694 0
715 0
225 0
731 0
766 0
853 0
914 0
754 0
424 0
926 0
932 0
723 0
797 0
788 0
948 0
533 0
663 0
993 0
959 0
742 0
779 0
872 0
884 0
896 0
967 0
252 0
462 0
612 0
174 0
378 0
234 0
138 0
818 0
486 0
445 0
569 0
516 0
336 0
841 0
865 0
161 0
195 0
187 0
156 0
149 0
646 0
985 0
971 0
677 0
591 0
575 0
527 0
411 0
439 0
457 0
651 0
217 0
281 0
383 0
243 0
347 0
319 0
321 0
829 0
837 0
